NAME : cgl_43.4899.tour
COMMENT : Length = 4899
COMMENT : Found by LKH-3 [Keld Helsgaun] Thu Jun 26 21:26:48 2025
TYPE : TOUR
DIMENSION : 44
TOUR_SECTION
19
32
24
20
2
37
1
38
39
41
42
40
44
11
13
10
14
9
6
7
5
8
4
12
3
43
18
16
35
30
22
36
27
25
21
33
17
15
34
26
23
29
31
28
-1
EOF
